data/solutions/recovery/wellformed/moderate/flexible/wellformed_moderate_instance89/37.sol
Elapsed time: 27.94
Upper bound: 7251.0
Planning weighted value: 460681.0
C[0]=7251.0
C[1]=7244.0
C[2]=7241.0
C[3]=7237.0
C[4]=7213.0
C[5]=7177.0
y[0]=3
y[1]=0
y[2]=5
y[3]=4
y[4]=1
y[5]=4
y[6]=1
y[7]=4
y[8]=3
y[9]=3
y[10]=3
y[11]=5
y[12]=2
y[13]=2
y[14]=1
y[15]=0
y[16]=1
y[17]=0
y[18]=4
y[19]=1
y[20]=5
y[21]=3
y[22]=2
y[23]=4
y[24]=5
y[25]=2
y[26]=2
y[27]=2
y[28]=3
y[29]=2
y[30]=3
y[31]=1
y[32]=2
y[33]=1
y[34]=4
y[35]=5
y[36]=5
y[37]=0
y[38]=0
y[39]=0
y[40]=0
y[41]=5
