data/solutions/recovery/wellformed/moderate/flexible/wellformed_moderate_instance89/37.log

Log started (V12.6.3.0) Fri Apr 20 19:32:30 2018

New value for default parallel thread count: 1

Problem '/tmp/tmpTmrQxS.pyomo.lp' read.
Read time = 0.00 sec. (0.13 ticks)

Problem name         : /tmp/tmpTmrQxS.pyomo.lp
Objective sense      : Minimize
Variables            :     260  [Nneg: 1,  Binary: 252,  General Integer: 7]
Objective nonzeros   :       1
Linear constraints   :      97  [Less: 48,  Equal: 49]
  Nonzeros           :    8917
  RHS nonzeros       :      85

Variables            : Min LB: 0.000000         Max UB: 1.000000       
Objective nonzeros   : Min   : 1.000000         Max   : 1.000000       
Linear constraints   :
  Nonzeros           : Min   : 1.000000         Max   : 1980.000       
  RHS nonzeros       : Min   : 1.000000         Max   : 5.000000       
Tried aggregator 2 times.
MIP Presolve eliminated 42 rows and 6 columns.
Aggregator did 7 substitutions.
Reduced MIP has 48 rows, 247 columns, and 693 nonzeros.
Reduced MIP has 246 binaries, 1 generals, 0 SOSs, and 0 indicators.
Presolve time = 0.00 sec. (2.20 ticks)
Found incumbent of value 43363.000000 after 0.00 sec. (2.69 ticks)
Probing time = 0.00 sec. (0.26 ticks)
Cover probing fixed 0 vars, tightened 4 bounds.
Tried aggregator 1 time.
Reduced MIP has 48 rows, 247 columns, and 693 nonzeros.
Reduced MIP has 246 binaries, 1 generals, 0 SOSs, and 0 indicators.
Presolve time = 0.00 sec. (0.41 ticks)
Probing time = 0.00 sec. (0.18 ticks)
Clique table members: 41.
MIP emphasis: balance optimality and feasibility.
MIP search method: dynamic search.
Parallel mode: none, using 1 thread.
Root relaxation solution time = 0.00 sec. (0.21 ticks)

        Nodes                                         Cuts/
   Node  Left     Objective  IInf  Best Integer    Best Bound    ItCnt     Gap

*     0+    0                        43363.0000     1980.0000            95.43%
      0     0     7227.1667     9    43363.0000     7227.1667       13   83.33%
*     0+    0                         7824.0000     7227.1667             7.63%
      0     0     7228.0000    16     7824.0000       Cuts: 8       36    7.62%
      0     0     7228.0000    21     7824.0000      Cuts: 12       57    7.62%
*     0+    0                         7570.0000     7228.0000             4.52%
      0     0     7228.0000    17     7570.0000    MIRcuts: 6       76    4.52%
      0     0     7228.0000    19     7570.0000      Cuts: 11      108    4.52%
*     0+    0                         7550.0000     7228.0000             4.26%
*     0+    0                         7431.0000     7228.0000             2.73%
*     0+    0                         7381.0000     7228.0000             2.07%
      0     2     7228.0000    10     7381.0000     7228.0000      108    2.07%
Elapsed time = 0.03 sec. (23.81 ticks, tree = 0.01 MB, solutions = 6)
*   200+  136                         7373.0000     7228.0000             1.97%
*  1070+  383                         7365.0000     7228.0000             1.86%
*  1170+  239                         7304.0000     7228.0000             1.04%
*  1170+  184                         7264.0000     7228.0000             0.50%
   1270   131     7228.0000    13     7264.0000     7228.0000     7473    0.50%
   1271   131     7228.0000    13     7264.0000     7228.0000     7473    0.50%
   1272   131     7228.0000    13     7264.0000     7228.0000     7474    0.50%
   1273   132     7228.0000    11     7264.0000     7228.0000     7482    0.50%
   1274   133     7228.0000    12     7264.0000     7228.0000     7486    0.50%
   1275   133     7228.0000    11     7264.0000     7228.0000     7487    0.50%
   1276   134     7228.0000    12     7264.0000     7228.0000     7488    0.50%
   1277   134     7228.0000    12     7264.0000     7228.0000     7489    0.50%
   1278   133     7229.8651    12     7264.0000     7228.0000     7494    0.50%
*  1470+  213                         7262.0000     7228.0000             0.47%
   2270   729     7228.0000    20     7262.0000     7228.0000    15500    0.47%
Elapsed time = 0.97 sec. (1057.36 ticks, tree = 0.21 MB, solutions = 11)
*  2662   944      integral     0     7257.0000     7228.0000    20372    0.40%
   4654  1960     7242.0000    18     7257.0000     7228.0000    55525    0.40%
   4655  1961     7242.0000    17     7257.0000     7228.0000    55527    0.40%
   4656  1960        cutoff           7257.0000     7228.0000    55550    0.40%
   4657  1961     7242.2559    16     7257.0000     7228.0000    55622    0.40%
   4658  1960    infeasible           7257.0000     7228.0000    55622    0.40%
   4659  1959        cutoff           7257.0000     7228.0000    55625    0.40%
   4660  1958        cutoff           7257.0000     7228.0000    55686    0.40%
   4661  1958     7241.4465    28     7257.0000     7228.0000    55805    0.40%
   4662  1959     7241.8685    23     7257.0000     7228.0000    55816    0.40%
   4663  1960     7242.1089    24     7257.0000     7228.0000    55824    0.40%
Elapsed time = 1.71 sec. (2020.52 ticks, tree = 0.56 MB, solutions = 12)
   6164  2681     7228.0000    20     7257.0000     7228.0000    96060    0.40%
   6165  2682     7228.0000    23     7257.0000     7228.0000    96077    0.40%
   6166  2683     7228.0000    20     7257.0000     7228.0000    96079    0.40%
   6167  2684     7228.0000    21     7257.0000     7228.0000    96108    0.40%
   6168  2685     7228.2998    28     7257.0000     7228.0000    96157    0.40%
   6169  2686     7228.3188    21     7257.0000     7228.0000    96159    0.40%
   6170  2687     7228.7290    28     7257.0000     7228.0000    96166    0.40%
   6171  2688     7228.7354    28     7257.0000     7228.0000    96167    0.40%
   6172  2689     7228.8391    28     7257.0000     7228.0000    96168    0.40%
   6173  2690     7228.8472    28     7257.0000     7228.0000    96169    0.40%
Elapsed time = 2.40 sec. (2976.36 ticks, tree = 0.81 MB, solutions = 12)
   7443  3416        cutoff           7257.0000     7228.0000   132690    0.40%
   7444  3416     7251.1298    29     7257.0000     7228.0000   132820    0.40%
   7445  3417     7251.6729    25     7257.0000     7228.0000   132830    0.40%
   7446  3416     7251.8063    25     7257.0000     7228.0000   132831    0.40%
   7447  3415        cutoff           7257.0000     7228.0000   132833    0.40%
   7448  3414        cutoff           7257.0000     7228.0000   132953    0.40%
   7449  3413    infeasible           7257.0000     7228.0000   132953    0.40%
   7450  3414     7228.4460    37     7257.0000     7228.0000   133141    0.40%
   7451  3415     7246.2259    22     7257.0000     7228.0000   133186    0.40%
   7452  3414        cutoff           7257.0000     7228.0000   133195    0.40%
Elapsed time = 3.07 sec. (3944.66 ticks, tree = 1.24 MB, solutions = 12)
*  7660+ 3210                         7251.0000     7228.0000             0.32%
   8558  3728        cutoff           7251.0000     7228.0000   167296    0.32%
   8559  3727        cutoff           7251.0000     7228.0000   167336    0.32%
   8560  3726        cutoff           7251.0000     7228.0000   167369    0.32%
   8561  3725        cutoff           7251.0000     7228.0000   167555    0.32%
   8562  3724        cutoff           7251.0000     7228.0000   167720    0.32%
   8563  3723        cutoff           7251.0000     7228.0000   167797    0.32%
   8564  3722        cutoff           7251.0000     7228.0000   167859    0.32%
   8565  3721        cutoff           7251.0000     7228.0000   167980    0.32%
   8566  3720        cutoff           7251.0000     7228.0000   168000    0.32%
   8567  3719        cutoff           7251.0000     7228.0000   168093    0.32%
Elapsed time = 3.73 sec. (4914.67 ticks, tree = 1.35 MB, solutions = 13)
   9590  4152     7228.0000    30     7251.0000     7228.0000   205109    0.32%
   9591  4153     7228.0000    30     7251.0000     7228.0000   205198    0.32%
   9592  4154     7228.0000    25     7251.0000     7228.0000   205200    0.32%
   9593  4155     7228.0000    28     7251.0000     7228.0000   205216    0.32%
   9594  4156     7228.0230    31     7251.0000     7228.0000   205254    0.32%
   9595  4157     7228.0274    30     7251.0000     7228.0000   205256    0.32%
   9596  4158     7228.3162    35     7251.0000     7228.0000   205271    0.32%
   9597  4159     7228.3392    37     7251.0000     7228.0000   205274    0.32%
   9598  4160     7228.3461    34     7251.0000     7228.0000   205277    0.32%
   9599  4161     7228.3620    35     7251.0000     7228.0000   205282    0.32%
Elapsed time = 4.38 sec. (5874.08 ticks, tree = 1.64 MB, solutions = 13)
  10464  4432        cutoff           7251.0000     7228.0000   242564    0.32%
  10465  4431        cutoff           7251.0000     7228.0000   242643    0.32%
  10466  4430        cutoff           7251.0000     7228.0000   242678    0.32%
  10467  4429        cutoff           7251.0000     7228.0000   242864    0.32%
  10468  4428        cutoff           7251.0000     7228.0000   242950    0.32%
  10469  4427        cutoff           7251.0000     7228.0000   243033    0.32%
  10470  4426        cutoff           7251.0000     7228.0000   243389    0.32%
  10471  4425        cutoff           7251.0000     7228.0000   243570    0.32%
  10472  4424        cutoff           7251.0000     7228.0000   243726    0.32%
  10473  4423        cutoff           7251.0000     7228.0000   243788    0.32%
Elapsed time = 5.04 sec. (6864.74 ticks, tree = 1.88 MB, solutions = 13)
  10903  4529     7228.0000    38     7251.0000     7228.0000   261976    0.32%
  10904  4530     7228.0000    40     7251.0000     7228.0000   262130    0.32%
  10905  4531     7228.0000    39     7251.0000     7228.0000   262137    0.32%
  10906  4532     7228.0000    30     7251.0000     7228.0000   262176    0.32%
  10907  4533     7228.0000    27     7251.0000     7228.0000   262298    0.32%
  10908  4534     7228.0000    31     7251.0000     7228.0000   262318    0.32%
  10909  4535     7228.0000    37     7251.0000     7228.0000   262399    0.32%
  10910  4536     7228.0000    36     7251.0000     7228.0000   262400    0.32%
  10911  4537     7228.0000    34     7251.0000     7228.0000   262402    0.32%
  10912  4538     7228.0000    32     7251.0000     7228.0000   262403    0.32%
Elapsed time = 6.00 sec. (7836.99 ticks, tree = 1.97 MB, solutions = 13)
  12015  5028     7228.0000    44     7251.0000     7228.0000   297539    0.32%
  12016  5029     7228.0000    32     7251.0000     7228.0000   297552    0.32%
  12017  5030     7228.0000    32     7251.0000     7228.0000   297585    0.32%
  12018  5031     7228.0000    35     7251.0000     7228.0000   297647    0.32%
  12019  5032     7228.0000    29     7251.0000     7228.0000   297650    0.32%
  12020  5033     7228.0000    30     7251.0000     7228.0000   297658    0.32%
  12021  5032        cutoff           7251.0000     7228.0000   297831    0.32%
  12022  5033     7228.0000    29     7251.0000     7228.0000   297832    0.32%
  12023  5034     7228.0000    33     7251.0000     7228.0000   297878    0.32%
  12024  5033        cutoff           7251.0000     7228.0000   297939    0.32%
Elapsed time = 6.65 sec. (8810.61 ticks, tree = 2.72 MB, solutions = 13)
  12902  5308        cutoff           7251.0000     7228.0000   331123    0.32%
  12903  5307        cutoff           7251.0000     7228.0000   331200    0.32%
  12904  5306        cutoff           7251.0000     7228.0000   331251    0.32%
  12905  5305        cutoff           7251.0000     7228.0000   331380    0.32%
  12906  5304        cutoff           7251.0000     7228.0000   331456    0.32%
  12907  5303        cutoff           7251.0000     7228.0000   331484    0.32%
  12908  5302        cutoff           7251.0000     7228.0000   331575    0.32%
  12909  5301        cutoff           7251.0000     7228.0000   331680    0.32%
  12910  5300        cutoff           7251.0000     7228.0000   331783    0.32%
  15158  6142     7235.6462    32     7251.0000     7228.0000   429599    0.32%
Elapsed time = 9.26 sec. (12625.95 ticks, tree = 3.71 MB, solutions = 13)
  18022  6873        cutoff           7251.0000     7228.0000   561185    0.32%
  18023  6872        cutoff           7251.0000     7228.0000   561272    0.32%
  18024  6871        cutoff           7251.0000     7228.0000   561294    0.32%
  18025  6870    infeasible           7251.0000     7228.0000   561384    0.32%
  18026  6871     7240.2892    33     7251.0000     7228.0000   561549    0.32%
  18027  6870        cutoff           7251.0000     7228.0000   561553    0.32%
  18028  6869    infeasible           7251.0000     7228.0000   561553    0.32%
  18029  6868     7249.7741    26     7251.0000     7228.0000   561820    0.32%
  18030  6869     7228.4668    47     7251.0000     7228.0000   562051    0.32%
  18031  6870     7228.5402    49     7251.0000     7228.0000   562056    0.32%
Elapsed time = 11.85 sec. (16463.49 ticks, tree = 4.36 MB, solutions = 13)
  21133  7976     7244.5684    38     7251.0000     7228.0000   689357    0.32%
  21134  7975        cutoff           7251.0000     7228.0000   689360    0.32%
  21135  7974        cutoff           7251.0000     7228.0000   689362    0.32%
  21136  7973        cutoff           7251.0000     7228.0000   689410    0.32%
  21137  7972        cutoff           7251.0000     7228.0000   689445    0.32%
  21138  7971        cutoff           7251.0000     7228.0000   689541    0.32%
  21139  7970        cutoff           7251.0000     7228.0000   689639    0.32%
  21140  7969        cutoff           7251.0000     7228.0000   689802    0.32%
  21141  7968        cutoff           7251.0000     7228.0000   689905    0.32%
  21142  7969     7233.6544    39     7251.0000     7228.0000   690040    0.32%
Elapsed time = 14.44 sec. (20297.65 ticks, tree = 5.24 MB, solutions = 13)
  24158  8967     7235.5861    34     7251.0000     7228.0000   822105    0.32%
  24159  8968     7235.6497    36     7251.0000     7228.0000   822110    0.32%
  24160  8967        cutoff           7251.0000     7228.0000   822116    0.32%
  24161  8968     7235.9554    38     7251.0000     7228.0000   822141    0.32%
  24162  8969     7236.1335    39     7251.0000     7228.0000   822156    0.32%
  24163  8968        cutoff           7251.0000     7228.0000   822164    0.32%
  24164  8969     7236.6667    31     7251.0000     7228.0000   822187    0.32%
  24165  8970     7237.2452    24     7251.0000     7228.0000   822193    0.32%
  24166  8971     7237.8729    28     7251.0000     7228.0000   822208    0.32%
  24167  8970        cutoff           7251.0000     7228.0000   822218    0.32%
Elapsed time = 17.03 sec. (24116.28 ticks, tree = 5.93 MB, solutions = 13)
  26996  9742     7240.7483    31     7251.0000     7228.0000   952506    0.32%
  26997  9743     7244.8000    22     7251.0000     7228.0000   952529    0.32%
  26998  9742        cutoff           7251.0000     7228.0000   952531    0.32%
  26999  9741        cutoff           7251.0000     7228.0000   952534    0.32%
  27000  9740        cutoff           7251.0000     7228.0000   952727    0.32%
  27001  9741     7237.7442    35     7251.0000     7228.0000   952942    0.32%
  27002  9742     7238.3854    37     7251.0000     7228.0000   952956    0.32%
  27003  9741        cutoff           7251.0000     7228.0000   952999    0.32%
  27004  9742     7239.6111    41     7251.0000     7228.0000   953006    0.32%
  27005  9741        cutoff           7251.0000     7228.0000   953008    0.32%
Elapsed time = 19.64 sec. (27944.52 ticks, tree = 6.22 MB, solutions = 13)
  30215  9896     7234.5050    22     7251.0000     7229.2684  1081115    0.30%
  30216  9896     7237.9968    21     7251.0000     7229.2684  1081137    0.30%
  30217  9895        cutoff           7251.0000     7229.2684  1081146    0.30%
  30218  9894        cutoff           7251.0000     7229.2688  1081172    0.30%
  30219  9893        cutoff           7251.0000     7229.2708  1081192    0.30%
  30220  9894     7229.2708    40     7251.0000     7229.2708  1081203    0.30%
  30221  9893        cutoff           7251.0000     7229.2708  1081208    0.30%
  30222  9894     7229.6970    39     7251.0000     7229.2708  1081217    0.30%
  30223  9895     7229.6977    40     7251.0000     7229.2708  1081219    0.30%
  30224  9896     7229.7064    40     7251.0000     7229.2708  1081221    0.30%
Elapsed time = 22.19 sec. (31763.07 ticks, tree = 6.22 MB, solutions = 13)
  36261  6813        cutoff           7251.0000     7235.5121  1197661    0.21%
  36262  6812        cutoff           7251.0000     7235.5139  1197684    0.21%
  36263  6811        cutoff           7251.0000     7235.5147  1197705    0.21%
  36264  6811     7249.4681    22     7251.0000     7235.5169  1197761    0.21%
  36265  6810        cutoff           7251.0000     7235.5169  1197764    0.21%
  36266  6809        cutoff           7251.0000     7235.5169  1197775    0.21%
  36267  6808        cutoff           7251.0000     7235.5184  1197788    0.21%
  36268  6807        cutoff           7251.0000     7235.5200  1197815    0.21%
  36269  6806        cutoff           7251.0000     7235.5217  1197835    0.21%
  36270  6805        cutoff           7251.0000     7235.5228  1197891    0.21%
Elapsed time = 24.79 sec. (35584.93 ticks, tree = 4.12 MB, solutions = 13)
  43508  1738     7244.8000    33     7251.0000     7244.8000  1330666    0.09%
  43509  1739     7245.3009    32     7251.0000     7244.8000  1330751    0.09%
  43510  1738        cutoff           7251.0000     7244.8000  1330760    0.09%
  43511  1737        cutoff           7251.0000     7244.8000  1330763    0.09%
  43512  1736        cutoff           7251.0000     7244.8000  1330820    0.09%
  43513  1735        cutoff           7251.0000     7244.8000  1330866    0.09%
  43514  1734        cutoff           7251.0000     7244.8000  1330881    0.09%
  43515  1733        cutoff           7251.0000     7244.8000  1330909    0.09%
  43516  1732        cutoff           7251.0000     7244.8000  1330946    0.09%
  43517  1731        cutoff           7251.0000     7244.8000  1330958    0.09%
Elapsed time = 27.39 sec. (39407.24 ticks, tree = 1.42 MB, solutions = 13)

Cover cuts applied:  198
Mixed integer rounding cuts applied:  36
Zero-half cuts applied:  1
Lift and project cuts applied:  3
Gomory fractional cuts applied:  2

Root node processing (before b&c):
  Real time             =    0.03 sec. (23.82 ticks)
Sequential b&c:
  Real time             =   27.89 sec. (40179.37 ticks)
                          ------------
Total (root+branch&cut) =   27.92 sec. (40203.19 ticks)

Solution pool: 13 solutions saved.

MIP - Integer optimal solution:  Objective =  7.2510000000e+03
Solution time =   27.92 sec.  Iterations = 1356552  Nodes = 45573
Deterministic time = 40203.19 ticks  (1440.16 ticks/sec)


Incumbent solution written to file '/tmp/tmph_2T2J.cplex.sol'.
